# Objective value = 51
WA1n 0
WA1p 0
WA2n 1
WA2p 0
WB1n 0
WB1p 0
WB2n 1
WB2p 0
WC1n 0
WC1p 0
WC2n 1
WC2p 0
WD1n 0
WD1p 0
WD2n 0
WD2p 1
WE1n 0
WE1p 0
WE2n 0
WE2p 1
WF1n 2
WF1p 0
WF2n 1
WF2p 0
WG1n 2
WG1p 0
WG2n 1
WG2p 0
WH1n 2
WH1p 0
WH2n 1
WH2p 0
WI1n 2
WI1p 0
WI2n 1
WI2p 0
WJ1n 0
WJ1p 2
WJ2n 0
WJ2p 1
WK1n 0
WK1p 2
WK2n 0
WK2p 1
WL1n 0
WL1p 2
WL2n 0
WL2p 1
WM1n 0
WM1p 2
WM2n 0
WM2p 1
WT1n 0
WT1p 9
5 7
a 0
b 0
c 0
d 0
e 0
f 0
g 0
h 1
i 0
j 1
k 0
l 0
m 0
n 0
o 0
p 0
q 0
r 0
s 1
t 1
u 1
v 1
w 1
x 1
y 1
z 1
aa 1
